[2026-03-24T00:33:26.541Z] Pipeline "set_set_set_s002_g007" → 2026_03_24_00_33_26_set_set_set_s002_g007_max.sol
Set parameter WLSAccessID
Set parameter WLSSecret
Set parameter LicenseID to value 2792458
Set parameter LogFile to value "gurobi.log"
Using license file /root/gurobi.lic
Academic license 2792458 - for non-commercial use only - registered to an___@studenti.unipg.it

Gurobi Optimizer version 13.0.1 build v13.0.1rc0 (linux64 - "Ubuntu 24.04.4 LTS")
Copyright (c) 2026, Gurobi Optimization, LLC

Warning: Duplicate section found (read 'binary') - Is a variable name equal to an LP file format keyword?
Warning: Duplicate section found (read 'binary') - Is a variable name equal to an LP file format keyword?
Warning: Duplicate section found (read 'binary') - Is a variable name equal to an LP file format keyword?
Warning: Duplicate section found (read 'binary') - Is a variable name equal to an LP file format keyword?
Warning: Duplicate section found (read 'binary') - Is a variable name equal to an LP file format keyword?
Warning: Duplicate section found (read 'binary') - Is a variable name equal to an LP file format keyword?
Warning: Duplicate section found (read 'binary') - Is a variable name equal to an LP file format keyword?
Warning: Duplicate section found (read 'binary') - Is a variable name equal to an LP file format keyword?
Warning: Duplicate section found (read 'binary') - Is a variable name equal to an LP file format keyword?
Warning: Duplicate section found (read 'binary') - Is a variable name equal to an LP file format keyword?
Warning: Further warnings of this type will be omitted.
Read LP format model from file /root/bgw/data/uploads/2026_03_24_00_33_26_set_set_set_s002_g007_max.lp
Reading time = 0.00 seconds
: 306 rows, 66 columns, 763 nonzeros

Using Gurobi shared library /opt/gurobi1301/linux64/lib/libgurobi.so.13.0.1

CPU model: AMD EPYC-Genoa Processor, instruction set [SSE2|AVX|AVX2|AVX512]
Thread count: 16 physical cores, 16 logical processors, using up to 16 threads

Academic license 2792458 - for non-commercial use only - registered to an___@studenti.unipg.it
Optimize a model with 306 rows, 66 columns and 763 nonzeros (Max)
Model fingerprint: 0xe7d12f4d
Model has 17 linear objective coefficients
Variable types: 24 continuous, 42 integer (42 binary)
Coefficient statistics:
  Matrix range     [1e+00, 8e+00]
  Objective range  [1e+00, 1e+00]
  Bounds range     [1e+00, 1e+00]
  RHS range        [1e+00, 9e+00]

Found heuristic solution: objective 17.0000000
Presolve removed 199 rows and 23 columns
Presolve time: 0.00s
Presolved: 107 rows, 43 columns, 349 nonzeros
Variable types: 0 continuous, 43 integer (36 binary)
Found heuristic solution: objective 33.0000000

Root relaxation: objective 8.000000e+01, 42 iterations, 0.00 seconds (0.00 work units)

    Nodes    |    Current Node    |     Objective Bounds      |     Work
 Expl Unexpl |  Obj  Depth IntInf | Incumbent    BestBd   Gap | It/Node Time

     0     0   80.00000    0   25   33.00000   80.00000   142%     -    0s
H    0     0                      37.0000000   80.00000   116%     -    0s
H    0     0                      38.0000000   80.00000   111%     -    0s
H    0     0                      41.0000000   80.00000  95.1%     -    0s
     0     0   80.00000    0   26   41.00000   80.00000  95.1%     -    0s
     0     0   75.00000    0   26   41.00000   75.00000  82.9%     -    0s
     0     0   75.00000    0   26   41.00000   75.00000  82.9%     -    0s
H    0     0                      42.0000000   75.00000  78.6%     -    0s
H    0     0                      45.0000000   75.00000  66.7%     -    0s
     0     0   75.00000    0   26   45.00000   75.00000  66.7%     -    0s
     0     0   75.00000    0   19   45.00000   75.00000  66.7%     -    0s
     0     0   73.66667    0   28   45.00000   73.66667  63.7%     -    0s
     0     0   73.66667    0   24   45.00000   73.66667  63.7%     -    0s
     0     0   73.00000    0   27   45.00000   73.00000  62.2%     -    0s
     0     0   73.00000    0   28   45.00000   73.00000  62.2%     -    0s
     0     0   73.00000    0   26   45.00000   73.00000  62.2%     -    0s
H    0     0                      47.0000000   73.00000  55.3%     -    0s
     0     0   73.00000    0   26   47.00000   73.00000  55.3%     -    0s
     0     0   72.30000    0   28   47.00000   72.30000  53.8%     -    0s
     0     0   72.30000    0   27   47.00000   72.30000  53.8%     -    0s
     0     0   71.40000    0   27   47.00000   71.40000  51.9%     -    0s
     0     0   71.40000    0   17   47.00000   71.40000  51.9%     -    0s
     0     0   71.00000    0   25   47.00000   71.00000  51.1%     -    0s
     0     0   70.80000    0   24   47.00000   70.80000  50.6%     -    0s
     0     0   70.80000    0   24   47.00000   70.80000  50.6%     -    0s
     0     0   70.20000    0   24   47.00000   70.20000  49.4%     -    0s
     0     0   70.20000    0   17   47.00000   70.20000  49.4%     -    0s
     0     2   70.20000    0   17   47.00000   70.20000  49.4%     -    0s

Cutting planes:
  Gomory: 11
  Cover: 4
  MIR: 3
  StrongCG: 1
  Inf proof: 10
  Zero half: 7

Explored 2931 nodes (17101 simplex iterations) in 0.13 seconds (0.06 work units)
Thread count was 16 (of 16 available processors)

Solution count 8: 47 45 42 ... 17

Optimal solution found (tolerance 1.00e-04)
Best objective 4.700000000000e+01, best bound 4.700000000000e+01, gap 0.0000%

Wrote result file '/root/bgw/data/results/2026_03_24_00_33_26_set_set_set_s002_g007_max.sol'

